206 3540
2 3 4 5 6 7 8 9 10 11 12 13 14 15 16 33 36 41 43 45 47 48 51 54 56 57 59 60 61 62 63 64 65 66 67 68 69 70 71 72 73 74 75 76 77 78 79 80 81 82 83 84 85 87 89 90 91 95 97 102 103 104 105 106 113 116 117 118 120 121 122 123 124 125 126 127 128 129 130 131 132 133 134 135 136 137 138 139 140 141 142 143 144 147 148 149 151 157 158 159 160 161 162 163 165 167 168 169 170 171 172 173 174 175 176 177 178 179 180 181 185 186 187 188 189 190 191 192 193 194 195 196 197 199 200 201 202 203 205 206
1 3 4 5 6 7 8 9 10 11 12 13 14 15 16 33 36 41 43 45 47 48 51 54 56 57 59 60 61 62 63 64 65 66 67 68 69 70 71 72 73 74 75 76 77 78 79 80 81 82 83 84 85 87 89 90 91 95 97 102 103 104 105 106 113 116 117 118 120 121 122 123 124 125 126 127 128 129 130 131 132 133 134 135 136 137 138 139 140 141 142 143 144 147 148 149 151 157 158 159 160 161 162 163 165 167 168 169 170 171 172 173 174 175 176 177 178 179 180 181 185 186 187 188 189 190 191 192 193 194 195 196 197 199 200 201 202 203 205 206
1 2 4 5 6 7 8 9 10 11 12 13 14 15 16 33 36 41 43 45 47 48 51 54 56 57 59 60 61 62 63 64 65 66 67 68 69 70 71 72 73 74 75 76 77 78 79 80 81 82 83 84 85 87 89 90 91 95 97 102 103 104 105 106 113 116 117 118 120 121 122 123 124 125 126 127 128 129 130 131 132 133 134 135 141 142 143 144 147 148 149 151 157 158 159 160 161 162 163 165 167 168 169 170 171 172 173 174 175 176 177 178 179 180 181 185 186 187 188 189 190 191 192 193 194 195 196 197 199 200 201 202 203 205 206
1 2 3 5 6 7 8 9 10 11 12 13 14 15 16 33 36 41 43 45 47 48 51 54 56 57 59 60 61 70 71 72 73 74 75 76 77 78 80 82 85 87 89 90 91 95 97 102 103 104 105 106 113 116 117 118 120 121 122 123 124 125 126 127 128 129 130 131 132 133 134 135 141 142 143 144 147 148 149 151 157 158 159 160 161 162 163 165 167 168 169 170 171 172 173 174 175 176 177 178 179 180 181 185 186 187 188 189 190 191 192 193 194 195 196 197 199 200 201 202 203 205 206
1 2 3 4 6 7 8 9 10 11 12 13 14 15 16 33 36 41 43 45 47 48 51 54 56 57 59 60 61 62 70 71 72 73 74 75 76 77 78 80 82 85 87 89 90 91 95 97 102 103 104 105 106 113 116 117 118 120 121 122 123 124 125 126 127 128 129 130 131 132 133 134 135 140 141 142 143 144 147 148 149 151 157 158 159 160 161 162 163 165 167 168 169 170 171 172 173 174 175 176 177 178 179 180 181 185 186 187 188 189 190 191 192 193 194 195 196 197 199 200 201 202 203 205 206
1 2 3 4 5 7 8 9 10 11 12 13 14 15 16 33 36 41 43 45 47 48 51 54 56 57 59 60 61 62 63 70 71 72 73 74 75 76 77 78 80 82 85 87 89 90 91 95 97 102 103 104 105 106 113 116 117 118 120 121 122 123 124 125 126 127 128 129 130 131 132 133 134 135 139 140 141 142 143 144 147 148 149 151 157 158 159 160 161 162 163 165 167 168 169 170 171 172 173 174 175 176 177 178 179 180 181 185 186 187 188 189 190 191 192 193 194 195 196 197 199 200 201 202 203 205 206
1 2 3 4 5 6 8 9 10 11 12 13 14 15 16 33 36 41 43 45 47 48 51 54 56 57 59 60 61 62 63 64 70 71 72 73 74 75 76 77 78 80 82 85 87 89 90 91 95 97 102 103 104 105 106 113 116 117 118 120 121 122 123 124 125 126 127 128 129 130 131 132 133 134 135 138 139 140 141 142 143 144 147 148 149 151 157 158 159 160 161 162 163 165 167 168 169 170 171 172 173 174 175 176 177 178 179 180 181 185 186 187 188 189 190 191 192 193 194 195 196 197 199 200 201 202 203 205 206
1 2 3 4 5 6 7 9 10 11 12 13 14 15 16 33 36 41 43 45 47 48 51 54 56 57 59 60 61 62 63 64 65 70 71 72 73 74 75 76 77 78 80 82 85 87 89 90 91 95 97 102 103 104 105 106 113 116 117 118 120 121 122 123 124 125 126 127 128 129 130 131 132 133 134 135 137 138 139 140 141 142 143 144 147 148 149 151 157 158 159 160 161 162 163 165 167 168 169 170 171 172 173 174 175 176 177 178 179 180 181 185 186 187 188 189 190 191 192 193 194 195 196 197 199 200 201 202 203 205 206
1 2 3 4 5 6 7 8 10 11 12 13 14 15 16 33 36 41 43 45 47 48 51 54 56 57 59 60 61 62 63 64 65 66 70 71 72 73 74 75 76 77 78 80 82 85 87 89 90 91 95 97 102 103 104 105 106 113 116 117 118 120 121 122 123 124 125 126 127 128 129 130 131 132 133 134 135 136 137 138 139 140 141 142 143 144 147 148 149 151 157 158 159 160 161 162 163 165 167 168 169 170 171 172 173 174 175 176 177 178 179 180 181 185 186 187 188 189 190 191 192 193 194 195 196 197 199 200 201 202 203 205 206
1 2 3 4 5 6 7 8 9 11 12 13 14 15 16 33 36 41 43 45 47 48 51 54 56 57 59 60 61 62 63 64 65 66 67 70 71 72 73 74 75 76 77 78 80 82 85 87 89 90 91 95 97 102 103 104 105 106 113 116 117 118 120 121 122 123 124 125 126 127 128 129 130 131 132 133 134 135 136 137 138 139 140 141 142 143 144 147 148 149 151 157 158 159 160 161 162 163 165 167 168 169 170 171 172 173 174 175 176 177 178 179 180 181 185 186 187 188 189 190 191 192 193 194 195 196 197 199 200 201 202 203 205 206
1 2 3 4 5 6 7 8 9 10 12 13 14 15 16 33 36 41 43 45 47 48 51 54 56 57 59 60 61 62 63 64 65 66 67 68 69 70 71 72 73 74 75 76 77 78 79 80 81 82 83 84 85 87 89 90 91 95 97 102 103 104 105 106 113 116 117 118 120 121 122 123 124 125 126 127 128 129 130 131 132 133 134 135 141 142 143 144 147 148 149 151 157 158 159 160 161 162 163 165 167 168 169 170 171 172 173 174 175 176 177 178 179 180 181 185 186 187 188 189 190 191 192 193 194 195 196 197 199 200 201 202 203 205 206
1 2 3 4 5 6 7 8 9 10 11 13 14 15 16 33 36 41 43 45 47 48 51 54 56 57 59 60 61 62 63 64 65 66 67 68 69 70 71 72 73 74 75 76 77 78 79 80 81 82 83 84 85 87 89 90 91 95 97 102 103 104 105 106 113 116 117 118 120 121 122 123 124 125 126 127 128 129 130 131 132 133 134 135 141 142 143 144 147 148 149 151 157 158 159 160 161 162 163 165 167 168 169 170 171 172 173 174 175 176 177 178 179 180 181 185 186 187 188 189 190 191 192 193 194 195 196 197 199 200 201 202 203 205 206
1 2 3 4 5 6 7 8 9 10 11 12 14 15 16 33 36 41 43 45 47 48 51 54 56 57 59 60 61 62 63 64 65 66 67 68 69 70 71 72 73 74 75 76 77 78 79 80 81 82 83 84 85 87 89 90 91 95 97 102 103 104 105 106 113 116 117 118 120 121 122 123 124 125 126 127 128 129 130 131 132 133 134 135 141 142 143 144 147 148 149 151 157 158 159 160 161 162 163 165 167 168 169 170 171 172 173 174 175 176 177 178 179 180 181 185 186 187 188 189 190 191 192 193 194 195 196 197 199 200 201 202 203 205 206
1 2 3 4 5 6 7 8 9 10 11 12 13 15 16 33 36 41 43 45 47 48 51 54 56 57 59 60 61 62 63 64 65 66 67 68 69 70 71 72 73 74 75 76 77 78 79 80 81 82 83 84 85 87 89 90 91 95 97 102 103 104 105 106 113 116 117 118 120 121 122 123 124 125 126 127 128 129 130 131 132 133 134 135 141 142 143 144 147 148 149 151 157 158 159 160 161 162 163 165 167 168 169 170 171 172 173 174 175 176 177 178 179 180 181 185 186 187 188 189 190 191 192 193 194 195 196 197 199 200 201 202 203 205 206
1 2 3 4 5 6 7 8 9 10 11 12 13 14 16 33 36 41 43 45 47 48 51 54 56 57 59 60 61 67 68 69 70 71 72 73 74 75 76 77 78 79 80 81 82 83 84 85 87 89 90 91 95 97 102 103 104 105 106 113 116 117 118 120 121 122 123 124 125 126 127 128 129 130 131 132 133 134 135 141 142 143 144 147 148 149 151 157 158 159 160 161 162 163 165 167 168 169 170 171 172 173 174 175 176 177 178 179 180 181 185 186 187 188 189 190 191 192 193 194 195 196 197 199 200 201 202 203 205 206
1 2 3 4 5 6 7 8 9 10 11 12 13 14 15 33 36 41 43 45 47 48 51 54 56 57 59 60 61 62 63 64 65 66 67 68 69 70 71 72 73 74 75 76 77 78 79 80 81 82 83 84 85 87 89 90 91 95 97 102 103 104 105 106 113 116 117 118 120 121 122 123 124 125 126 127 128 129 130 131 132 133 134 135 136 137 138 139 140 141 142 143 144 147 148 149 151 157 158 159 160 161 162 163 165 167 168 169 170 171 172 173 174 175 176 177 178 179 180 181 185 186 187 188 189 190 191 192 193 194 195 196 197 199 200 201 202 203 205 206
18 19 20 21 22 23 24 25 26 27 28 29 30 31 32 33 36 41 43 45 47 48 51 54 56 57 59 60 61 62 63 64 65 66 67 68 69 70 71 72 73 74 75 76 77 78 79 80 81 82 83 84 85 87 89 90 91 95 97 102 103 104 105 106 113 116 117 118 120 121 122 123 124 125 126 127 128 129 130 131 132 133 134 135 136 137 138 139 140 141 142 143 144 147 148 149 151 157 158 159 160 161 162 163 165 167 168 169 170 171 172 173 174 175 176 177 178 179 180 181 185 186 187 188 189 190 191 192 193 194 195 196 197 199 200 201 202 203 205 206
17 19 20 21 22 23 24 25 26 27 28 29 30 31 32 62 63 64 65 66 67 68 69 79 81 83 84 136 137 138 139 140
17 18 20 21 22 23 24 25 26 27 28 29 30 31 32 62 63 64 65 66 67 68 69 70 79 81 83 84 135 136 137 138 139 140
17 18 19 21 22 23 24 25 26 27 28 29 30 31 32 62 63 64 65 66 67 68 69 70 71 79 81 83 84 134 135 136 137 138 139 140
17 18 19 20 22 23 24 25 26 27 28 29 30 31 32 62 63 64 65 66 67 68 69 70 71 72 79 81 83 84 133 134 135 136 137 138 139 140
17 18 19 20 21 23 24 25 26 27 28 29 30 31 32 62 63 64 65 66 67 68 69 70 71 72 73 79 81 83 84 132 133 134 135 136 137 138 139 140
17 18 19 20 21 22 24 25 26 27 28 29 30 31 32 62 63 64 65 66 67 68 69 70 71 72 73 74 79 81 83 84 131 132 133 134 135 136 137 138 139 140
17 18 19 20 21 22 23 25 26 27 28 29 30 31 32 62 63 64 65 66 67 68 69 70 71 72 73 74 75 79 81 83 84 130 131 132 133 134 135 136 137 138 139 140
17 18 19 20 21 22 23 24 26 27 28 29 30 31 32 62 63 64 65 66 67 68 69 70 71 72 73 74 75 76 79 81 83 84 129 130 131 132 133 134 135 136 137 138 139 140
17 18 19 20 21 22 23 24 25 27 28 29 30 31 32 62 63 64 65 66 67 68 69 70 71 72 73 74 75 76 77 79 81 83 84 128 129 130 131 132 133 134 135 136 137 138 139 140
17 18 19 20 21 22 23 24 25 26 28 29 30 31 32 33 36 41 43 45 47 48 51 54 56 57 59 60 61 62 63 64 65 66 67 68 69 79 81 83 84 95 97 102 103 104 105 106 113 116 117 118 120 121 122 123 127 128 129 130 131 132 133 134 135 136 137 138 139 140 141 142 143 144 147 148 149 151 157 158 159 160 161 162 163 165 167 168 169 170 171 172 173 174 175 176 177 178 179 180 181 185 186 187 188 189 190 191 192 193 194 195 196 197 199 200 201 202 203 205 206
17 18 19 20 21 22 23 24 25 26 27 29 30 31 32 33 36 41 43 45 47 48 54 62 63 64 65 66 67 68 69 79 81 83 84 136 137 138 139 140
17 18 19 20 21 22 23 24 25 26 27 28 30 31 32 33 36 41 43 45 47 48 54 62 63 64 65 66 67 68 69 79 81 83 84 136 137 138 139 140
17 18 19 20 21 22 23 24 25 26 27 28 29 31 32 33 36 41 43 45 47 48 54 62 63 64 65 66 67 68 69 79 81 83 84 136 137 138 139 140
17 18 19 20 21 22 23 24 25 26 27 28 29 30 32 33 36 41 43 45 47 48 54 62 63 64 65 66 67 68 69 79 81 83 84 136 137 138 139 140
17 18 19 20 21 22 23 24 25 26 27 28 29 30 31 33 36 41 43 45 47 48 54 62 63 64 65 66 67 68 69 79 81 83 84 136 137 138 139 140
1 2 3 4 5 6 7 8 9 10 11 12 13 14 15 16 17 27 28 29 30 31 32 36 41 43 45 47 48 51 54 59 60 61 95 97 102 103 104 105 106 113 116 117 118 120 121 122 123 141 142 143 144 147 148 149 151 157 158 159 160 205 206


1 2 3 4 5 6 7 8 9 10 11 12 13 14 15 16 17 27 28 29 30 31 32 33 41 43 45 47 48 51 54 56 57 59 60 61 95 97 102 103 104 105 106 113 116 117 118 120 121 122 123 124 125 126 127 128 129 130 131 132 133 134 135 141 142 143 144 147 148 149 151 157 158 159 160 161 162 163 165 167 168 169 170 171 172 173 174 175 176 177 178 179 180 181 185 186 187 188 189 190 191 192 193 194 195 196 197 199 200 201 202 203 205 206




1 2 3 4 5 6 7 8 9 10 11 12 13 14 15 16 17 27 28 29 30 31 32 33 36 43 45 48 51 54 56 57 59 60 61 102 103 104 105 106 113 116 117 118 120 121 122 123 141 142 143 144 147 148 149 151 157 158 159 160 161 162 163 165 167 168 169 170 171 172 173 174 175 176 177 178 179 180 181 185 186 187 188 189 190 191 192 193 194 195 196 197 199 200 201 202 203 205 206

1 2 3 4 5 6 7 8 9 10 11 12 13 14 15 16 17 27 28 29 30 31 32 33 36 41 45 48 51 54 56 57 59 60 61 102 103 104 105 106 113 116 117 118 120 121 122 123 141 142 143 144 147 148 149 151 157 158 159 160 161 162 163 165 167 168 169 170 171 172 173 174 175 176 177 178 179 180 181 185 186 187 188 189 190 191 192 193 194 195 196 197 199 200 201 202 203 205 206

1 2 3 4 5 6 7 8 9 10 11 12 13 14 15 16 17 27 28 29 30 31 32 33 36 41 43 48 51 54 56 57 59 60 61 102 103 104 105 106 113 116 117 118 120 121 122 123 141 142 143 144 147 148 149 151 157 158 159 160 161 162 163 165 167 168 169 170 171 172 173 174 175 176 177 185 186 187 188 189 190 191 192 193 194 195 196 197 199 200 201 202 203 205 206

1 2 3 4 5 6 7 8 9 10 11 12 13 14 15 16 17 27 28 29 30 31 32 33 36 48 51 87 89 90 91 95
1 2 3 4 5 6 7 8 9 10 11 12 13 14 15 16 17 27 28 29 30 31 32 33 36 41 43 45 47 51 54 59 60 61 95 97 102 103 104 105 106 113 116 117 118 120 121 122 123 141 142 143 144 147 148 149 151 157 158 159 160 185 186 187 205 206


1 2 3 4 5 6 7 8 9 10 11 12 13 14 15 16 17 27 33 36 41 43 45 47 48 54 56 57 59 60 61 95 97 102 103 104 105 106 113 116 117 118 120 121 122 123 141 142 143 144 149 151 157 158 159 160 161 162 163 165 167 168 169 170 171 172 173 174 175 176 177 178 179 180 181 185 186 187 188 189 190 191 192 193 194 195 196 197 199 200 201 202 203 205 206


1 2 3 4 5 6 7 8 9 10 11 12 13 14 15 16 17 27 28 29 30 31 32 33 36 41 43 45 48 51 56 57 59 60 61 102 103 104 105 106 113 116 117 118 120 121 122 123 141 142 143 144 147 148 149 151 157 158 159 160 161 162 163 165 167 168 169 170 171 172 173 174 175 176 177 178 179 180 181 185 186 187 188 189 190 191 192 193 194 195 196 197 199 200 201 202 203 205 206

1 2 3 4 5 6 7 8 9 10 11 12 13 14 15 16 17 27 36 41 43 45 51 54 57 61 121 161 165 186 188 195 199 200 201 202 203
1 2 3 4 5 6 7 8 9 10 11 12 13 14 15 16 17 27 36 41 43 45 51 54 56 61 121 167 168 169 170 171 172 173 174 175 176 177 178 179 180 181

1 2 3 4 5 6 7 8 9 10 11 12 13 14 15 16 17 27 33 36 41 43 45 48 51 54 60 116 117 118
1 2 3 4 5 6 7 8 9 10 11 12 13 14 15 16 17 27 33 36 41 43 45 48 51 54 59 61 116 117 118 120
1 2 3 4 5 6 7 8 9 10 11 12 13 14 15 16 17 27 33 36 41 43 45 48 51 54 56 57 60 120 121 122 123 141 142 143 144 147 148 157 158 159 160 161 162 163 165 167 168 169 170 171 172 173 174 175 176 177 178 179 180 181 185 186 187 188 189 190 191 192 193 194 195 196 197 199 200 201 202 203
1 2 3 5 6 7 8 9 10 11 12 13 14 16 17 18 19 20 21 22 23 24 25 26 27 28 29 30 31 32
1 2 3 6 7 8 9 10 11 12 13 14 16 17 18 19 20 21 22 23 24 25 26 27 28 29 30 31 32
1 2 3 7 8 9 10 11 12 13 14 16 17 18 19 20 21 22 23 24 25 26 27 28 29 30 31 32
1 2 3 8 9 10 11 12 13 14 16 17 18 19 20 21 22 23 24 25 26 27 28 29 30 31 32
1 2 3 9 10 11 12 13 14 16 17 18 19 20 21 22 23 24 25 26 27 28 29 30 31 32
1 2 3 10 11 12 13 14 15 16 17 18 19 20 21 22 23 24 25 26 27 28 29 30 31 32 68 69 79 81 83 84 136 137 138 139 140
1 2 3 11 12 13 14 15 16 17 18 19 20 21 22 23 24 25 26 27 28 29 30 31 32 67 69 79 81 83 84 136 137 138 139 140
1 2 3 11 12 13 14 15 16 17 18 19 20 21 22 23 24 25 26 27 28 29 30 31 32 67 68 79 81 83 84 136 137 138 139 140
1 2 3 4 5 6 7 8 9 10 11 12 13 14 15 16 17 19 20 21 22 23 24 25 26
1 2 3 4 5 6 7 8 9 10 11 12 13 14 15 16 17 20 21 22 23 24 25 26
1 2 3 4 5 6 7 8 9 10 11 12 13 14 15 16 17 21 22 23 24 25 26
1 2 3 4 5 6 7 8 9 10 11 12 13 14 15 16 17 22 23 24 25 26
1 2 3 4 5 6 7 8 9 10 11 12 13 14 15 16 17 23 24 25 26
1 2 3 4 5 6 7 8 9 10 11 12 13 14 15 16 17 24 25 26
1 2 3 4 5 6 7 8 9 10 11 12 13 14 15 16 17 25 26
1 2 3 4 5 6 7 8 9 10 11 12 13 14 15 16 17 26
1 2 3 4 5 6 7 8 9 10 11 12 13 14 15 16 17
1 2 3 11 12 13 14 15 16 17 18 19 20 21 22 23 24 25 26 27 28 29 30 31 32 67 68 69 81 83 84
1 2 3 4 5 6 7 8 9 10 11 12 13 14 15 16 17
1 2 3 11 12 13 14 15 16 17 18 19 20 21 22 23 24 25 26 27 28 29 30 31 32 67 68 69 79 83 84
1 2 3 4 5 6 7 8 9 10 11 12 13 14 15 16 17
1 2 3 11 12 13 14 15 16 17 18 19 20 21 22 23 24 25 26 27 28 29 30 31 32 67 68 69 79 81 84
1 2 3 11 12 13 14 15 16 17 18 19 20 21 22 23 24 25 26 27 28 29 30 31 32 67 68 69 79 81 83
1 2 3 4 5 6 7 8 9 10 11 12 13 14 15 16 17

1 2 3 4 5 6 7 8 9 10 11 12 13 14 15 16 17 47

1 2 3 4 5 6 7 8 9 10 11 12 13 14 15 16 17 47 90
1 2 3 4 5 6 7 8 9 10 11 12 13 14 15 16 17 47 89
1 2 3 4 5 6 7 8 9 10 11 12 13 14 15 16 17 47



1 2 3 4 5 6 7 8 9 10 11 12 13 14 15 16 17 27 33 36 47 48 51

1 2 3 4 5 6 7 8 9 10 11 12 13 14 15 16 17 27 33 36 48 51




1 2 3 4 5 6 7 8 9 10 11 12 13 14 15 16 17 27 33 36 41 43 45 48 51 54
1 2 3 4 5 6 7 8 9 10 11 12 13 14 15 16 17 27 33 36 41 43 45 48 51 54 104
1 2 3 4 5 6 7 8 9 10 11 12 13 14 15 16 17 27 33 36 41 43 45 48 51 54 103
1 2 3 4 5 6 7 8 9 10 11 12 13 14 15 16 17 27 33 36 41 43 45 48 51 54
1 2 3 4 5 6 7 8 9 10 11 12 13 14 15 16 17 27 33 36 41 43 45 48 51 54 113






1 2 3 4 5 6 7 8 9 10 11 12 13 14 15 16 17 27 33 36 41 43 45 48 51 54 106


1 2 3 4 5 6 7 8 9 10 11 12 13 14 15 16 17 27 33 36 41 43 45 48 51 54 59 60 117
1 2 3 4 5 6 7 8 9 10 11 12 13 14 15 16 17 27 33 36 41 43 45 48 51 54 59 60 116
1 2 3 4 5 6 7 8 9 10 11 12 13 14 15 16 17 27 33 36 41 43 45 48 51 54 59 60

1 2 3 4 5 6 7 8 9 10 11 12 13 14 15 16 17 27 33 36 41 43 45 48 51 54 60 61
1 2 3 4 5 6 7 8 9 10 11 12 13 14 15 16 17 27 33 36 41 43 45 48 51 54 56 57 61 122 123 141 142 143 144 147 148 157 158 159 160 161 162 163 165 167 168 169 170 171 172 173 174 175 176 177 178 179 180 181 185 186 187 188 189 190 191 192 193 194 195 196 197 199 200 201 202 203
1 2 3 4 5 6 7 8 9 10 11 12 13 14 15 16 17 27 33 36 41 43 45 48 51 54 61 121
1 2 3 4 5 6 7 8 9 10 11 12 13 14 15 16 17 27 33 36 41 43 45 48 51 54 61 121
1 2 3 4 5 6 7 8 9 10 11 12 13 14 15 16 17 36
1 2 3 4 5 6 7 8 9 10 11 12 13 14 15 16 17 36
1 2 3 4 5 6 7 8 9 10 11 12 13 14 15 16 17 36
1 2 3 4 5 6 7 8 9 10 11 12 13 14 15 16 17 27 36 128 129 130 131 132 133 134 135
1 2 3 4 5 6 7 8 9 10 11 12 13 14 15 16 17 26 27 36 127 129 130 131 132 133 134 135
1 2 3 4 5 6 7 8 9 10 11 12 13 14 15 16 17 25 26 27 36 127 128 130 131 132 133 134 135
1 2 3 4 5 6 7 8 9 10 11 12 13 14 15 16 17 24 25 26 27 36 127 128 129 131 132 133 134 135
1 2 3 4 5 6 7 8 9 10 11 12 13 14 15 16 17 23 24 25 26 27 36 127 128 129 130 132 133 134 135
1 2 3 4 5 6 7 8 9 10 11 12 13 14 15 16 17 22 23 24 25 26 27 36 127 128 129 130 131 133 134 135
1 2 3 4 5 6 7 8 9 10 11 12 13 14 15 16 17 21 22 23 24 25 26 27 36 127 128 129 130 131 132 134 135
1 2 3 4 5 6 7 8 9 10 11 12 13 14 15 16 17 20 21 22 23 24 25 26 27 36 127 128 129 130 131 132 133 135
1 2 3 4 5 6 7 8 9 10 11 12 13 14 15 16 17 19 20 21 22 23 24 25 26 27 36 127 128 129 130 131 132 133 134
1 2 9 10 16 17 18 19 20 21 22 23 24 25 26 27 28 29 30 31 32 67 68 69 137 138 139 140
1 2 8 9 10 16 17 18 19 20 21 22 23 24 25 26 27 28 29 30 31 32 67 68 69 136 138 139 140
1 2 7 8 9 10 16 17 18 19 20 21 22 23 24 25 26 27 28 29 30 31 32 67 68 69 136 137 139 140
1 2 6 7 8 9 10 16 17 18 19 20 21 22 23 24 25 26 27 28 29 30 31 32 67 68 69 136 137 138 140
1 2 5 6 7 8 9 10 16 17 18 19 20 21 22 23 24 25 26 27 28 29 30 31 32 67 68 69 136 137 138 139
1 2 3 4 5 6 7 8 9 10 11 12 13 14 15 16 17 27 33 36 41 43 45 48 51 54 61 121
1 2 3 4 5 6 7 8 9 10 11 12 13 14 15 16 17 27 33 36 41 43 45 48 51 54 61 121
1 2 3 4 5 6 7 8 9 10 11 12 13 14 15 16 17 27 33 36 41 43 45 48 51 54 61 121
1 2 3 4 5 6 7 8 9 10 11 12 13 14 15 16 17 27 33 36 41 43 45 48 51 54 61 121


1 2 3 4 5 6 7 8 9 10 11 12 13 14 15 16 17 27 33 36 41 43 45 48 54 61 121
1 2 3 4 5 6 7 8 9 10 11 12 13 14 15 16 17 27 33 36 41 43 45 48 54 61 121
1 2 3 4 5 6 7 8 9 10 11 12 13 14 15 16 17 27 33 36 41 43 45 48 51 54

1 2 3 4 5 6 7 8 9 10 11 12 13 14 15 16 17 27 33 36 41 43 45 48 51 54





1 2 3 4 5 6 7 8 9 10 11 12 13 14 15 16 17 27 33 36 41 43 45 48 51 54 61 121 158
1 2 3 4 5 6 7 8 9 10 11 12 13 14 15 16 17 27 33 36 41 43 45 48 51 54 61 121 157
1 2 3 4 5 6 7 8 9 10 11 12 13 14 15 16 17 27 33 36 41 43 45 48 51 54 61 121
1 2 3 4 5 6 7 8 9 10 11 12 13 14 15 16 17 27 33 36 41 43 45 48 51 54 61 121
1 2 3 4 5 6 7 8 9 10 11 12 13 14 15 16 17 27 36 41 43 45 51 54 56 61 121 162 163 165
1 2 3 4 5 6 7 8 9 10 11 12 13 14 15 16 17 27 36 41 43 45 51 54 61 121 161
1 2 3 4 5 6 7 8 9 10 11 12 13 14 15 16 17 27 36 41 43 45 51 54 61 121 161

1 2 3 4 5 6 7 8 9 10 11 12 13 14 15 16 17 27 36 41 43 45 51 54 56 61 121 161

1 2 3 4 5 6 7 8 9 10 11 12 13 14 15 16 17 27 36 41 43 45 51 54 57 61 121 168 169 170 171 172 173 174 175 176 177 178 179 180 181
1 2 3 4 5 6 7 8 9 10 11 12 13 14 15 16 17 27 36 41 43 45 51 54 57 61 121 167
1 2 3 4 5 6 7 8 9 10 11 12 13 14 15 16 17 27 36 41 43 45 51 54 57 61 121 167 170 171 172 173 174 175
1 2 3 4 5 6 7 8 9 10 11 12 13 14 15 16 17 27 36 41 43 45 51 54 57 61 121 167 169
1 2 3 4 5 6 7 8 9 10 11 12 13 14 15 16 17 27 36 41 43 45 51 54 57 61 121 167 169
1 2 3 4 5 6 7 8 9 10 11 12 13 14 15 16 17 27 36 41 43 45 51 54 57 61 121 167 169 173 174
1 2 3 4 5 6 7 8 9 10 11 12 13 14 15 16 17 27 36 41 43 45 51 54 57 61 121 167 169 172
1 2 3 4 5 6 7 8 9 10 11 12 13 14 15 16 17 27 36 41 43 45 51 54 57 61 121 167 169 172
1 2 3 4 5 6 7 8 9 10 11 12 13 14 15 16 17 27 36 41 43 45 51 54 57 61 121 167 169
1 2 3 4 5 6 7 8 9 10 11 12 13 14 15 16 17 27 36 41 43 45 51 54 57 61 121 167
1 2 3 4 5 6 7 8 9 10 11 12 13 14 15 16 17 27 36 41 43 45 51 54 57 61 121 167
1 2 3 4 5 6 7 8 9 10 11 12 13 14 15 16 17 27 36 41 43 51 54 57 61 121 167
1 2 3 4 5 6 7 8 9 10 11 12 13 14 15 16 17 27 36 41 43 51 54 57 61 121 167
1 2 3 4 5 6 7 8 9 10 11 12 13 14 15 16 17 27 36 41 43 51 54 57 61 121 167
1 2 3 4 5 6 7 8 9 10 11 12 13 14 15 16 17 27 36 41 43 51 54 57 61 121 167



1 2 3 4 5 6 7 8 9 10 11 12 13 14 15 16 17 27 36 41 43 45 48 51 54 61 121 186 187 188 189 190 191 192 193 194 195
1 2 3 4 5 6 7 8 9 10 11 12 13 14 15 16 17 27 36 41 43 45 48 51 54 56 61 121 185 187 188 189 190 191 192 193 194 195 196 197 199
1 2 3 4 5 6 7 8 9 10 11 12 13 14 15 16 17 27 36 41 43 45 48 51 54 61 121 185 186 188 189 190 191 192 193 194
1 2 3 4 5 6 7 8 9 10 11 12 13 14 15 16 17 27 36 41 43 45 51 54 56 61 121 185 186 187 189 190 191 192 193 194 195 196 197 199 200 201 202
1 2 3 4 5 6 7 8 9 10 11 12 13 14 15 16 17 27 36 41 43 45 51 54 61 121 185 186 187 188
1 2 3 4 5 6 7 8 9 10 11 12 13 14 15 16 17 27 36 41 43 45 51 54 61 121 185 186 187 188
1 2 3 4 5 6 7 8 9 10 11 12 13 14 15 16 17 27 36 41 43 45 51 54 61 121 185 186 187 188 192
1 2 3 4 5 6 7 8 9 10 11 12 13 14 15 16 17 27 36 41 43 45 51 54 61 121 185 186 187 188 191
1 2 3 4 5 6 7 8 9 10 11 12 13 14 15 16 17 27 36 41 43 45 51 54 61 121 185 186 187 188 194 195 196
1 2 3 4 5 6 7 8 9 10 11 12 13 14 15 16 17 27 36 41 43 45 51 54 61 121 185 186 187 188 193
1 2 3 4 5 6 7 8 9 10 11 12 13 14 15 16 17 27 36 41 43 45 51 54 56 61 121 185 186 188 193 196 197 199 200
1 2 3 4 5 6 7 8 9 10 11 12 13 14 15 16 17 27 36 41 43 45 51 54 61 121 186 188 193 195
1 2 3 4 5 6 7 8 9 10 11 12 13 14 15 16 17 27 36 41 43 45 51 54 61 121 186 188 195

1 2 3 4 5 6 7 8 9 10 11 12 13 14 15 16 17 27 36 41 43 45 51 54 56 61 121 186 188 195
1 2 3 4 5 6 7 8 9 10 11 12 13 14 15 16 17 27 36 41 43 45 51 54 56 61 121 188 195
1 2 3 4 5 6 7 8 9 10 11 12 13 14 15 16 17 27 36 41 43 45 51 54 56 61 121 188 202 203
1 2 3 4 5 6 7 8 9 10 11 12 13 14 15 16 17 27 36 41 43 45 51 54 56 61 121 188 201
1 2 3 4 5 6 7 8 9 10 11 12 13 14 15 16 17 27 36 41 43 45 51 54 56 61 121 201

1 2 3 4 5 6 7 8 9 10 11 12 13 14 15 16 17 27 33 36 41 43 45 48 51 54 206
1 2 3 4 5 6 7 8 9 10 11 12 13 14 15 16 17 27 33 36 41 43 45 48 51 54 205
